letting n =  10
letting blocks =  [[1, 1], [1, 3], [1, 5], [1, 9], [2, 1], [2, 3], [2, 8], [2, 9], [3, 1], [3, 2], [3, 5], [4, 6], [4, 10], [5, 4], [6, 1], [6, 5], [6, 6], [7, 2], [7, 6], [7, 10], [8, 3], [9, 2], [9, 5], [10, 10]]
